QPLIB_3856
LGQ
minimize
351 # number of variables
317 # number of constraints
0.0 # default value for linear coefficients in objective
1 # number of non-default linear coefficients in objective
90 -1.0
0.0 # objective constant
1036 # number of quadratic terms in all constraints
51 306 49 -2.0
51 306 49 -2.0
51 306 49 -2.0
51 306 49 -2.0
51 306 49 -2.0
51 306 49 -2.0
51 306 49 -2.0
51 306 49 -2.0
51 306 49 -2.0
52 1 1 -2.0
52 1 1 -2.0
52 1 1 -2.0
52 1 1 -2.0
52 1 1 -2.0
52 1 1 -2.0
52 1 1 -2.0
52 1 1 -2.0
52 1 1 -2.0
53 1 -1088926567 -2.0
53 1 -1088926567 -2.0
53 1 -1088926567 -2.0
53 1 -1088926567 -2.0
53 1 -1088926567 -2.0
53 1 -1088926567 -2.0
53 1 -1088926567 -2.0
53 1 -1088926567 -2.0
53 1 -1088926567 -2.0
54 32697 1 -2.0
54 32697 1 -2.0
54 32697 1 -2.0
54 32697 1 -2.0
54 32697 1 -2.0
54 32697 1 -2.0
54 32697 1 -2.0
54 32697 1 -2.0
54 32697 1 -2.0
55 50 -1088926567 -2.0
55 50 -1088926567 -2.0
55 50 -1088926567 -2.0
55 50 -1088926567 -2.0
55 50 -1088926567 -2.0
55 50 -1088926567 -2.0
55 50 -1088926567 -2.0
55 50 -1088926567 -2.0
55 50 -1088926567 -2.0
56 32697 1 -2.0
56 32697 1 -2.0
56 32697 1 -2.0
56 32697 1 -2.0
56 32697 1 -2.0
56 32697 1 -2.0
56 32697 1 -2.0
56 32697 1 -2.0
56 32697 1 -2.0
57 1651076121 21915041 -2.0
57 1651076121 21915041 -2.0
57 1651076121 21915041 -2.0
57 1651076121 21915041 -2.0
57 1651076121 21915041 -2.0
57 1651076121 21915041 -2.0
57 1651076121 21915041 -2.0
57 1651076121 21915041 -2.0
57 1651076121 21915041 -2.0
58 1685352564 1 -2.0
58 1685352564 1 -2.0
58 1685352564 1 -2.0
58 1685352564 1 -2.0
58 1685352564 1 -2.0
58 1685352564 1 -2.0
58 1685352564 1 -2.0
58 1685352564 1 -2.0
58 1685352564 1 -2.0
59 1651076196 21917601 -2.0
59 1651076196 21917601 -2.0
59 1651076196 21917601 -2.0
59 1651076196 21917601 -2.0
59 1651076196 21917601 -2.0
59 1651076196 21917601 -2.0
59 1651076196 21917601 -2.0
59 1651076196 21917601 -2.0
59 1651076196 21917601 -2.0
60 1932407863 1 -2.0
60 1932407863 1 -2.0
60 1932407863 1 -2.0
60 1932407863 1 -2.0
60 1932407863 1 -2.0
60 1932407863 1 -2.0
60 1932407863 1 -2.0
60 1932407863 1 -2.0
60 1932407863 1 -2.0
61 1886593136 21920161 -2.0
61 1886593136 21920161 -2.0
61 1886593136 21920161 -2.0
61 1886593136 21920161 -2.0
61 1886593136 21920161 -2.0
61 1886593136 21920161 -2.0
61 1886593136 21920161 -2.0
61 1886593136 21920161 -2.0
61 1886593136 21920161 -2.0
62 540090482 1 -2.0
62 540090482 1 -2.0
62 540090482 1 -2.0
62 540090482 1 -2.0
62 540090482 1 -2.0
62 540090482 1 -2.0
62 540090482 1 -2.0
62 540090482 1 -2.0
62 540090482 1 -2.0
63 21921457 49 -2.0
63 21921457 49 -2.0
63 21921457 49 -2.0
63 21921457 49 -2.0
63 21921457 49 -2.0
63 21921457 49 -2.0
63 21921457 49 -2.0
63 21921457 49 -2.0
63 21921457 49 -2.0
64 1 1 -2.0
64 1 1 -2.0
64 1 1 -2.0
64 1 1 -2.0
64 1 1 -2.0
64 1 1 -2.0
64 1 1 -2.0
64 1 1 -2.0
64 1 1 -2.0
65 21922753 1 0.30576
66 1 1 0.30576
67 21924049 50 0.30576
68 1 1 0.30576
69 1651076121 21926609 0.30576
70 1685352564 1 0.30576
71 1651076196 21927905 0.30576
72 1932407863 1 0.30576
73 1886593136 21929201 0.30576
74 540090469 1 0.30576
75 21930497 49 0.30576
76 1 1 0.30576
77 21931793 1 0.30576
78 1 1 0.30576
79 21933089 50 0.30576
80 1 1 0.30576
81 1651076121 21934385 0.30576
82 1667459429 1 0.30576
83 1651076196 21935681 0.30576
84 1932407863 1 0.30576
85 1768169584 1 0.30576
86 540090468 1 0.30576
87 162 49 0.30576
88 1 1 0.30576
89 22593825 1 0.30576
90 1 1 0.30576
91 21895665 50 0.30576
92 1 1 0.30576
93 1651076121 1 0.30576
94 1668118630 1 0.30576
95 1651076196 1 0.30576
96 1932407863 1 0.30576
97 2019893360 1 0.30576
98 540090478 1 0.30576
99 114 49 0.30576
100 1 1 0.30576
101 1 -1088926855 0.30576
102 32697 1 0.30576
103 22593825 50 0.30576
104 1 1 0.30576
105 1651076121 1 0.30576
106 1668574818 2 0.30576
107 1651076196 1 0.30576
108 1932407863 353 0.30576
109 1851859056 1 0.30576
110 540090485 1 0.30576
111 21939425 49 0.30576
112 1 1 0.30576
113 1 1 0.30576
114 1 1 0.30576
115 50 50 0.30576
116 1 1 0.30576
117 1651076121 22600001 0.30576
118 1667396200 1 0.30576
119 1651076196 22594993 0.30576
120 1932407863 1 0.30576
121 1919361136 21939425 0.30576
122 540090467 1 0.30576
123 22595009 50 0.30576
124 1 1 0.30576
125 305 1 0.30576
126 1 1 0.30576
127 113 50 0.30576
128 1 1 0.30576
129 1651076122 -1112837535 0.30576
130 1852403556 32697 0.30576
131 1768711012 1 0.30576
132 775173731 1 0.30576
133 1763733364 1 0.30576
134 824209265 1 0.30576
135 12321 1 -1.0
135 12321 1 -2.0
135 12321 1 -2.0
135 12321 1 -2.0
135 12321 1 -2.0
135 12321 1 -2.0
135 12321 1 -1.0
135 12321 1 -2.0
135 12321 1 -2.0
135 12321 1 -2.0
135 12321 1 -1.0
135 12321 1 -2.0
135 12321 1 -2.0
135 12321 1 -1.0
136 1 1 -1.0
136 1 1 -2.0
136 1 1 -2.0
136 1 1 -2.0
136 1 1 -2.0
136 1 1 -2.0
136 1 1 -1.0
136 1 1 -2.0
136 1 1 -2.0
136 1 1 -2.0
136 1 1 -1.0
136 1 1 -2.0
136 1 1 -2.0
136 1 1 -1.0
137 21889601 1 -1.0
137 21889601 1 -2.0
137 21889601 1 -2.0
137 21889601 1 -2.0
137 21889601 1 -2.0
137 21889601 1 -2.0
137 21889601 1 -1.0
137 21889601 1 -2.0
137 21889601 1 -2.0
137 21889601 1 -2.0
137 21889601 1 -1.0
137 21889601 1 -2.0
137 21889601 1 -2.0
137 21889601 1 -1.0
138 1 1 -1.0
138 1 1 -2.0
138 1 1 -2.0
138 1 1 -2.0
138 1 1 -2.0
138 1 1 -2.0
138 1 1 -1.0
138 1 1 -2.0
138 1 1 -2.0
138 1 1 -2.0
138 1 1 -1.0
138 1 1 -2.0
138 1 1 -2.0
138 1 1 -1.0
139 21893153 50 -1.0
139 21893153 50 -2.0
139 21893153 50 -2.0
139 21893153 50 -2.0
139 21893153 50 -2.0
139 21893153 50 -2.0
139 21893153 50 -1.0
139 21893153 50 -2.0
139 21893153 50 -2.0
139 21893153 50 -2.0
139 21893153 50 -1.0
139 21893153 50 -2.0
139 21893153 50 -2.0
139 21893153 50 -1.0
140 1 1 -1.0
140 1 1 -2.0
140 1 1 -2.0
140 1 1 -2.0
140 1 1 -2.0
140 1 1 -2.0
140 1 1 -1.0
140 1 1 -2.0
140 1 1 -2.0
140 1 1 -2.0
140 1 1 -1.0
140 1 1 -2.0
140 1 1 -2.0
140 1 1 -1.0
141 1651076122 1 -1.0
141 1651076122 1 -2.0
141 1651076122 1 -2.0
141 1651076122 1 -2.0
141 1651076122 1 -2.0
141 1651076122 1 -2.0
141 1651076122 1 -1.0
141 1651076122 1 -2.0
141 1651076122 1 -2.0
141 1651076122 1 -2.0
141 1651076122 1 -1.0
141 1651076122 1 -2.0
141 1651076122 1 -2.0
141 1651076122 1 -1.0
142 1852403556 1 -1.0
142 1852403556 1 -2.0
142 1852403556 1 -2.0
142 1852403556 1 -2.0
142 1852403556 1 -2.0
142 1852403556 1 -2.0
142 1852403556 1 -1.0
142 1852403556 1 -2.0
142 1852403556 1 -2.0
142 1852403556 1 -2.0
142 1852403556 1 -1.0
142 1852403556 1 -2.0
142 1852403556 1 -2.0
142 1852403556 1 -1.0
143 1768711012 1 -1.0
143 1768711012 1 -2.0
143 1768711012 1 -2.0
143 1768711012 1 -2.0
143 1768711012 1 -2.0
143 1768711012 1 -2.0
143 1768711012 1 -1.0
143 1768711012 1 -2.0
143 1768711012 1 -2.0
143 1768711012 1 -2.0
143 1768711012 1 -1.0
143 1768711012 1 -2.0
143 1768711012 1 -2.0
143 1768711012 1 -1.0
144 775173731 1 1.0
144 775173731 1 2.0
144 775173731 1 2.0
144 775173731 1 2.0
144 775173731 1 2.0
144 775173731 1 2.0
144 775173731 1 1.0
144 775173731 1 2.0
144 775173731 1 2.0
144 775173731 1 2.0
144 775173731 1 1.0
144 775173731 1 2.0
144 775173731 1 2.0
144 775173731 1 1.0
145 1763733364 1 1.0
145 1763733364 1 2.0
145 1763733364 1 2.0
145 1763733364 1 2.0
145 1763733364 1 2.0
145 1763733364 1 2.0
145 1763733364 1 1.0
145 1763733364 1 2.0
145 1763733364 1 2.0
145 1763733364 1 2.0
145 1763733364 1 1.0
145 1763733364 1 2.0
145 1763733364 1 2.0
145 1763733364 1 1.0
146 824209265 1 1.0
146 824209265 1 2.0
146 824209265 1 2.0
146 824209265 1 2.0
146 824209265 1 2.0
146 824209265 1 2.0
146 824209265 1 1.0
146 824209265 1 2.0
146 824209265 1 2.0
146 824209265 1 2.0
146 824209265 1 1.0
146 824209265 1 2.0
146 824209265 1 2.0
146 824209265 1 1.0
147 12321 1 1.0
147 12321 1 2.0
147 12321 1 2.0
147 12321 1 2.0
147 12321 1 2.0
147 12321 1 2.0
147 12321 1 1.0
147 12321 1 2.0
147 12321 1 2.0
147 12321 1 2.0
147 12321 1 1.0
147 12321 1 2.0
147 12321 1 2.0
147 12321 1 1.0
148 10 1 1.0
148 10 1 2.0
148 10 1 2.0
148 10 1 2.0
148 10 1 2.0
148 10 1 2.0
148 10 1 1.0
148 10 1 2.0
148 10 1 2.0
148 10 1 2.0
148 10 1 1.0
148 10 1 2.0
148 10 1 2.0
148 10 1 1.0
149 1 1 1.0
149 1 1 2.0
149 1 1 2.0
149 1 1 2.0
149 1 1 2.0
149 1 1 2.0
149 1 1 1.0
149 1 1 2.0
149 1 1 2.0
149 1 1 2.0
149 1 1 1.0
149 1 1 2.0
149 1 1 2.0
149 1 1 1.0
150 1 1 2.0
151 50 1 2.0
152 1027 1 2.0
153 1651076121 21893633 2.0
154 1668836972 1 2.0
155 1651076196 34 2.0
156 1932407863 1 2.0
157 1852514416 1818576901 2.0
158 540090489 32625 2.0
159 49 -1088926855 2.0
160 32697 1 2.0
161 33 1 2.0
162 1 1 2.0
163 50 50 2.0
164 1 1 2.0
165 1651076122 1651076121 2.0
166 1852403556 1685022573 2.0
167 1768711012 1651076196 2.0
168 1932407863 775173731 2.0
169 1735139440 1646292852 2.0
170 824209008 540090480 2.0
171 12321 49 2.0
172 1 1 2.0
173 1 1 2.0
174 1 1 2.0
175 50 50 2.0
176 1 1 2.0
177 1651076122 1651076121 2.0
178 1852403556 1685022573 2.0
179 1768711012 1651076196 2.0
180 1932407863 775173731 2.0
181 1735139440 1663070068 2.0
182 824206179 540090480 2.0
183 12321 49 2.0
184 1 1 2.0
185 1 1 2.0
186 1 1 2.0
187 50 50 2.0
188 1 1 2.0
189 1651076122 1651076121 2.0
190 1852403556 1685352564 2.0
191 1768711012 1651076196 2.0
192 1932407863 775173731 2.0
193 1886593136 1646292852 2.0
194 824209008 540090477 2.0
195 12321 49 2.0
196 1 1 2.0
197 21889025 1 2.0
198 1 1 2.0
199 50 50 2.0
200 1 1 2.0
201 1651076122 1651076121 2.0
202 1852403556 1683974509 2.0
203 1768711012 1651076196 2.0
204 1932407863 775173731 2.0
205 1768693872 1663070068 2.0
206 824206179 540090464 2.0
207 12321 49 2.0
208 1 1 2.0
209 193 1 2.0
210 1 1 2.0
211 50 50 2.0
212 1 1 2.0
213 1651076122 1651076121 2.0
214 1852403556 1668248429 2.0
215 1768711012 1651076196 2.0
216 1932407863 775173731 2.0
217 1936466032 1663070068 2.0
218 824210800 540090480 2.0
219 49 -1088933855 2.0
220 32697 1 2.0
221 1 1 2.0
222 1 1 2.0
223 50 50 2.0
224 1 1 2.0
225 1651076122 1651076121 2.0
226 1852403556 1668049262 2.0
227 1768711012 1651076196 2.0
228 1932407863 775173731 2.0
229 1768759408 1763733364 2.0
230 824209265 540156013 2.0
231 12321 49 2.0
232 1 1 2.0
233 1 1 2.0
234 1 1 -2.0
234 1 1 1.41
234 1 1 0.5
235 50 50 -2.0
235 50 50 1.41
235 50 50 0.5
236 1 1 -2.0
236 1 1 1.41
236 1 1 0.5
237 1651076122 1651076121 -2.0
237 1651076122 1651076121 1.41
237 1651076122 1651076121 0.5
238 1852403556 1668049262 -2.0
238 1852403556 1668049262 1.41
238 1852403556 1668049262 0.5
239 1768711012 1651076196 -2.0
239 1768711012 1651076196 1.41
239 1768711012 1651076196 0.5
240 1932407863 775173731 0.25
240 1932407863 775173731 -2.0
240 1932407863 775173731 1.25
240 1932407863 775173731 0.25
240 1932407863 775173731 0.16
240 1932407863 775173731 0.09
241 1864396660 1768759408 0.25
241 1864396660 1768759408 -2.0
241 1864396660 1768759408 1.25
241 1864396660 1768759408 0.25
241 1864396660 1768759408 0.16
241 1864396660 1768759408 0.09
242 824205172 540156013 0.25
242 824205172 540156013 -2.0
242 824205172 540156013 1.25
242 824205172 540156013 0.25
242 824205172 540156013 0.16
242 824205172 540156013 0.09
243 12321 49 0.25
243 12321 49 -2.0
243 12321 49 1.25
243 12321 49 0.25
243 12321 49 0.16
243 12321 49 0.09
244 1 1 0.25
244 1 1 -2.0
244 1 1 1.25
244 1 1 0.25
244 1 1 0.16
244 1 1 0.09
245 1 1 0.25
245 1 1 -2.0
245 1 1 1.25
245 1 1 0.25
245 1 1 0.16
245 1 1 0.09
246 1 1 0.25
246 1 1 -2.0
246 1 1 1.16
246 1 1 0.25
246 1 1 0.09
246 1 1 0.16
246 1 1 0.09
247 50 50 0.25
247 50 50 -2.0
247 50 50 1.16
247 50 50 0.25
247 50 50 0.09
247 50 50 0.16
247 50 50 0.09
248 1 1 0.25
248 1 1 -2.0
248 1 1 1.16
248 1 1 0.25
248 1 1 0.09
248 1 1 0.16
248 1 1 0.09
249 1651076122 1651076121 0.25
249 1651076122 1651076121 -2.0
249 1651076122 1651076121 1.16
249 1651076122 1651076121 0.25
249 1651076122 1651076121 0.09
249 1651076122 1651076121 0.16
249 1651076122 1651076121 0.09
250 1852403556 1668049262 0.25
250 1852403556 1668049262 -2.0
250 1852403556 1668049262 1.16
250 1852403556 1668049262 0.25
250 1852403556 1668049262 0.09
250 1852403556 1668049262 0.16
250 1852403556 1668049262 0.09
251 1768711012 1651076196 0.25
251 1768711012 1651076196 -2.0
251 1768711012 1651076196 1.16
251 1768711012 1651076196 0.25
251 1768711012 1651076196 0.09
251 1768711012 1651076196 0.16
251 1768711012 1651076196 0.09
252 1932407863 775173731 0.25
252 1932407863 775173731 -2.0
252 1932407863 775173731 1.16
252 1932407863 775173731 0.25
252 1932407863 775173731 0.09
252 1932407863 775173731 0.16
252 1932407863 775173731 0.09
253 1931505524 1768759408 0.25
253 1931505524 1768759408 -2.0
253 1931505524 1768759408 1.16
253 1931505524 1768759408 0.25
253 1931505524 1768759408 0.09
253 1931505524 1768759408 0.16
253 1931505524 1768759408 0.09
254 824209508 540156013 0.25
254 824209508 540156013 -2.0
254 824209508 540156013 1.16
254 824209508 540156013 0.25
254 824209508 540156013 0.09
254 824209508 540156013 0.16
254 824209508 540156013 0.09
255 49 -1088933599 0.25
255 49 -1088933599 -2.0
255 49 -1088933599 1.16
255 49 -1088933599 0.25
255 49 -1088933599 0.09
255 49 -1088933599 0.16
255 49 -1088933599 0.09
256 32697 1 0.25
256 32697 1 -2.0
256 32697 1 1.16
256 32697 1 0.25
256 32697 1 0.09
256 32697 1 0.16
256 32697 1 0.09
257 385 1 0.25
257 385 1 -2.0
257 385 1 1.16
257 385 1 0.25
257 385 1 0.09
257 385 1 0.16
257 385 1 0.09
258 1 1 0.25
258 1 1 -2.0
258 1 1 1.16
258 1 1 0.25
258 1 1 0.09
258 1 1 0.16
259 50 50 0.25
259 50 50 -2.0
259 50 50 1.16
259 50 50 0.25
259 50 50 0.09
259 50 50 0.16
260 1 1 0.25
260 1 1 -2.0
260 1 1 1.16
260 1 1 0.25
260 1 1 0.09
260 1 1 0.16
261 1651076121 1651076121 0.25
261 1651076121 1651076121 -2.0
261 1651076121 1651076121 1.16
261 1651076121 1651076121 0.25
261 1651076121 1651076121 0.09
261 1651076121 1651076121 0.16
262 1684959076 1667986286 0.25
262 1684959076 1667986286 -2.0
262 1684959076 1667986286 1.16
262 1684959076 1667986286 0.25
262 1684959076 1667986286 0.09
262 1684959076 1667986286 0.16
263 1651076196 1651076196 0.25
263 1651076196 1651076196 -2.0
263 1651076196 1651076196 1.16
263 1651076196 1651076196 0.25
263 1651076196 1651076196 0.09
263 1651076196 1651076196 0.16
264 1932407863 1932407863 0.25
264 1932407863 1932407863 -2.0
264 1932407863 1932407863 1.16
264 1932407863 1932407863 0.09
265 1936531568 1868767344 0.25
265 1936531568 1868767344 -2.0
265 1936531568 1868767344 1.16
265 1936531568 1868767344 0.09
266 540156012 540090479 0.25
266 540156012 540090479 -2.0
266 540156012 540090479 1.16
266 540156012 540090479 0.09
267 50 50 0.25
267 50 50 -2.0
267 50 50 1.16
267 50 50 0.09
268 1 1 0.25
268 1 1 -2.0
268 1 1 1.16
268 1 1 0.09
269 21893617 1 0.25
269 21893617 1 -2.0
269 21893617 1 1.16
269 21893617 1 0.09
270 1 1 0.09
270 1 1 0.32
270 1 1 -2.0
270 1 1 1.0
270 1 1 0.32
270 1 1 0.09
271 50 50 0.09
271 50 50 0.32
271 50 50 -2.0
271 50 50 1.0
271 50 50 0.32
271 50 50 0.09
272 1 1 0.09
272 1 1 0.32
272 1 1 -2.0
272 1 1 1.0
272 1 1 0.32
272 1 1 0.09
273 1651076122 1651076121 0.09
273 1651076122 1651076121 0.32
273 1651076122 1651076121 -2.0
273 1651076122 1651076121 1.0
273 1651076122 1651076121 0.32
273 1651076122 1651076121 0.09
274 1852403556 1684959076 0.09
274 1852403556 1684959076 0.32
274 1852403556 1684959076 -2.0
274 1852403556 1684959076 1.0
274 1852403556 1684959076 0.32
274 1852403556 1684959076 0.09
275 1768711012 1651076196 0.09
275 1768711012 1651076196 0.32
275 1768711012 1651076196 -2.0
275 1768711012 1651076196 1.0
275 1768711012 1651076196 0.32
275 1768711012 1651076196 0.09
276 1932407863 775173731 0.09
276 1932407863 775173731 0.16
276 1932407863 775173731 0.09
276 1932407863 775173731 0.16
276 1932407863 775173731 -2.0
276 1932407863 775173731 1.09
276 1932407863 775173731 0.16
276 1932407863 775173731 0.16
276 1932407863 775173731 0.09
277 1868767344 1864396660 0.09
277 1868767344 1864396660 0.16
277 1868767344 1864396660 0.09
277 1868767344 1864396660 0.16
277 1868767344 1864396660 -2.0
277 1868767344 1864396660 1.09
277 1868767344 1864396660 0.16
277 1868767344 1864396660 0.16
277 1868767344 1864396660 0.09
278 824205172 540090479 0.09
278 824205172 540090479 0.16
278 824205172 540090479 0.09
278 824205172 540090479 0.16
278 824205172 540090479 -2.0
278 824205172 540090479 1.09
278 824205172 540090479 0.16
278 824205172 540090479 0.16
278 824205172 540090479 0.09
279 12321 -1088916942 0.09
279 12321 -1088916942 0.16
279 12321 -1088916942 0.09
279 12321 -1088916942 0.16
279 12321 -1088916942 -2.0
279 12321 -1088916942 1.09
279 12321 -1088916942 0.16
279 12321 -1088916942 0.16
279 12321 -1088916942 0.09
280 32697 1 0.09
280 32697 1 0.16
280 32697 1 0.09
280 32697 1 0.16
280 32697 1 -2.0
280 32697 1 1.09
280 32697 1 0.16
280 32697 1 0.16
280 32697 1 0.09
281 481 1 0.09
281 481 1 0.16
281 481 1 0.09
281 481 1 0.16
281 481 1 -2.0
281 481 1 1.09
281 481 1 0.16
281 481 1 0.16
281 481 1 0.09
282 1 1 0.09
282 1 1 0.16
282 1 1 0.09
282 1 1 0.16
282 1 1 -2.0
282 1 1 1.0
282 1 1 0.16
282 1 1 0.09
282 1 1 0.16
282 1 1 0.09
283 50 50 0.09
283 50 50 0.16
283 50 50 0.09
283 50 50 0.16
283 50 50 -2.0
283 50 50 1.0
283 50 50 0.16
283 50 50 0.09
283 50 50 0.16
283 50 50 0.09
284 1 1 0.09
284 1 1 0.16
284 1 1 0.09
284 1 1 0.16
284 1 1 -2.0
284 1 1 1.0
284 1 1 0.16
284 1 1 0.09
284 1 1 0.16
284 1 1 0.09
285 1651076122 1651076121 0.09
285 1651076122 1651076121 0.16
285 1651076122 1651076121 0.09
285 1651076122 1651076121 0.16
285 1651076122 1651076121 -2.0
285 1651076122 1651076121 1.0
285 1651076122 1651076121 0.16
285 1651076122 1651076121 0.09
285 1651076122 1651076121 0.16
285 1651076122 1651076121 0.09
286 1852403556 1681157988 0.09
286 1852403556 1681157988 0.16
286 1852403556 1681157988 0.09
286 1852403556 1681157988 0.16
286 1852403556 1681157988 -2.0
286 1852403556 1681157988 1.0
286 1852403556 1681157988 0.16
286 1852403556 1681157988 0.09
286 1852403556 1681157988 0.16
286 1852403556 1681157988 0.09
287 1768711012 1651076196 0.09
287 1768711012 1651076196 0.16
287 1768711012 1651076196 0.09
287 1768711012 1651076196 0.16
287 1768711012 1651076196 -2.0
287 1768711012 1651076196 1.0
287 1768711012 1651076196 0.16
287 1768711012 1651076196 0.09
287 1768711012 1651076196 0.16
287 1768711012 1651076196 0.09
288 1932407863 775173731 0.09
288 1932407863 775173731 0.16
288 1932407863 775173731 0.09
288 1932407863 775173731 0.16
288 1932407863 775173731 -2.0
288 1932407863 775173731 1.0
288 1932407863 775173731 0.09
288 1932407863 775173731 0.16
289 1868767344 1864396660 0.09
289 1868767344 1864396660 0.16
289 1868767344 1864396660 0.09
289 1868767344 1864396660 0.16
289 1868767344 1864396660 -2.0
289 1868767344 1864396660 1.0
289 1868767344 1864396660 0.09
289 1868767344 1864396660 0.16
290 824209508 540090421 0.09
290 824209508 540090421 0.16
290 824209508 540090421 0.09
290 824209508 540090421 0.16
290 824209508 540090421 -2.0
290 824209508 540090421 1.0
290 824209508 540090421 0.09
290 824209508 540090421 0.16
291 12577 2097 0.09
291 12577 2097 0.16
291 12577 2097 0.09
291 12577 2097 0.16
291 12577 2097 -2.0
291 12577 2097 1.0
291 12577 2097 0.09
291 12577 2097 0.16
292 1 1 0.09
292 1 1 0.16
292 1 1 0.09
292 1 1 0.16
292 1 1 -2.0
292 1 1 1.0
292 1 1 0.09
292 1 1 0.16
293 21912465 1 0.09
293 21912465 1 0.16
293 21912465 1 0.09
293 21912465 1 0.16
293 21912465 1 -2.0
293 21912465 1 1.0
293 21912465 1 0.09
293 21912465 1 0.16
294 1 1 0.09
294 1 1 0.25
294 1 1 0.09
294 1 1 -2.0
294 1 1 1.0
294 1 1 0.32
294 1 1 0.09
295 50 50 0.09
295 50 50 0.25
295 50 50 0.09
295 50 50 -2.0
295 50 50 1.0
295 50 50 0.32
295 50 50 0.09
296 1 1 0.09
296 1 1 0.25
296 1 1 0.09
296 1 1 -2.0
296 1 1 1.0
296 1 1 0.32
296 1 1 0.09
297 1651076122 1651076121 0.09
297 1651076122 1651076121 0.25
297 1651076122 1651076121 0.09
297 1651076122 1651076121 -2.0
297 1651076122 1651076121 1.0
297 1651076122 1651076121 0.32
297 1651076122 1651076121 0.09
298 1852403556 1684959076 0.09
298 1852403556 1684959076 0.25
298 1852403556 1684959076 0.09
298 1852403556 1684959076 -2.0
298 1852403556 1684959076 1.0
298 1852403556 1684959076 0.32
298 1852403556 1684959076 0.09
299 1768711012 1651076196 0.09
299 1768711012 1651076196 0.25
299 1768711012 1651076196 0.09
299 1768711012 1651076196 -2.0
299 1768711012 1651076196 1.0
299 1768711012 1651076196 0.32
299 1768711012 1651076196 0.09
300 1932407863 775173731 0.09
300 1932407863 775173731 0.16
300 1932407863 775173731 0.09
300 1932407863 775173731 0.16
300 1932407863 775173731 -2.0
300 1932407863 775173731 1.09
300 1932407863 775173731 0.16
300 1932407863 775173731 0.16
301 1868767344 1864396660 0.09
301 1868767344 1864396660 0.16
301 1868767344 1864396660 0.09
301 1868767344 1864396660 0.16
301 1868767344 1864396660 -2.0
301 1868767344 1864396660 1.09
301 1868767344 1864396660 0.16
301 1868767344 1864396660 0.16
302 824210792 540090479 0.09
302 824210792 540090479 0.16
302 824210792 540090479 0.09
302 824210792 540090479 0.16
302 824210792 540090479 -2.0
302 824210792 540090479 1.09
302 824210792 540090479 0.16
302 824210792 540090479 0.16
303 12577 50 0.09
303 12577 50 0.16
303 12577 50 0.09
303 12577 50 0.16
303 12577 50 -2.0
303 12577 50 1.09
303 12577 50 0.16
303 12577 50 0.16
304 1 1 0.09
304 1 1 0.16
304 1 1 0.09
304 1 1 0.16
304 1 1 -2.0
304 1 1 1.09
304 1 1 0.16
304 1 1 0.16
305 1 -1088926727 0.09
305 1 -1088926727 0.16
305 1 -1088926727 0.09
305 1 -1088926727 0.16
305 1 -1088926727 -2.0
305 1 -1088926727 1.09
305 1 -1088926727 0.16
305 1 -1088926727 0.16
306 32697 1 0.09
306 32697 1 0.16
306 32697 1 0.16
306 32697 1 -2.0
306 32697 1 1.0
306 32697 1 0.09
307 50 50 0.09
307 50 50 0.16
307 50 50 0.16
307 50 50 -2.0
307 50 50 1.0
307 50 50 0.09
308 1 1 0.09
308 1 1 0.16
308 1 1 0.16
308 1 1 -2.0
308 1 1 1.0
308 1 1 0.09
309 1651076122 1651076121 0.09
309 1651076122 1651076121 0.16
309 1651076122 1651076121 0.16
309 1651076122 1651076121 -2.0
309 1651076122 1651076121 1.0
309 1651076122 1651076121 0.09
310 1852403556 1684305508 0.09
310 1852403556 1684305508 0.16
310 1852403556 1684305508 0.16
310 1852403556 1684305508 -2.0
310 1852403556 1684305508 1.0
310 1852403556 1684305508 0.09
311 1768711012 1651076196 0.09
311 1768711012 1651076196 0.16
311 1768711012 1651076196 0.16
311 1768711012 1651076196 -2.0
311 1768711012 1651076196 1.0
311 1768711012 1651076196 0.09
312 1932407863 775173731 0.09
312 1932407863 775173731 0.25
312 1932407863 775173731 -2.0
312 1932407863 775173731 1.0
313 1986207856 1864396660 0.09
313 1986207856 1864396660 0.25
313 1986207856 1864396660 -2.0
313 1986207856 1864396660 1.0
314 824208238 540090469 0.09
314 824208238 540090469 0.25
314 824208238 540090469 -2.0
314 824208238 540090469 1.0
315 21895217 12321 0.09
315 21895217 12321 0.25
315 21895217 12321 -2.0
315 21895217 12321 1.0
316 1 1 0.09
316 1 1 0.25
316 1 1 -2.0
316 1 1 1.0
317 21912481 1 0.09
317 21912481 1 0.25
317 21912481 1 -2.0
317 21912481 1 1.0
589 # number of linear terms in all constraints
1 184 0.5
1 185 1.0
1 186 1.0
1 187 1.0
1 188 1.0
1 189 1.0
1 190 0.5
1 191 1.0
1 192 1.0
1 193 1.0
1 194 0.5
1 195 1.0
1 196 1.0
1 197 0.5
2 198 0.5
2 199 1.0
2 200 1.0
2 201 1.0
2 202 1.0
2 203 1.0
2 204 0.5
2 205 1.0
2 206 1.0
2 207 1.0
2 208 0.5
2 209 1.0
2 210 1.0
2 211 0.5
3 212 0.5
3 213 1.0
3 214 1.0
3 215 1.0
3 216 1.0
3 217 1.0
3 218 0.5
3 219 1.0
3 220 1.0
3 221 1.0
3 222 0.5
3 223 1.0
3 224 1.0
3 225 0.5
4 226 0.5
4 227 1.0
4 228 1.0
4 229 1.0
4 230 1.0
4 231 1.0
4 232 0.5
4 233 1.0
4 234 1.0
4 235 1.0
4 236 0.5
4 237 1.0
4 238 1.0
4 239 0.5
5 240 0.5
5 241 1.0
5 242 1.0
5 243 1.0
5 244 1.0
5 245 1.0
5 246 0.5
5 247 1.0
5 248 1.0
5 249 1.0
5 250 0.5
5 251 1.0
5 252 1.0
5 253 0.5
6 254 0.5
6 255 1.0
6 256 1.0
6 257 1.0
6 258 1.0
6 259 1.0
6 260 0.5
6 261 1.0
6 262 1.0
6 263 1.0
6 264 0.5
6 265 1.0
6 266 1.0
6 267 0.5
7 268 0.5
7 269 1.0
7 270 1.0
7 271 1.0
7 272 1.0
7 273 1.0
7 274 0.5
7 275 1.0
7 276 1.0
7 277 1.0
7 278 0.5
7 279 1.0
7 280 1.0
7 281 0.5
8 282 0.5
8 283 1.0
8 284 1.0
8 285 1.0
8 286 1.0
8 287 1.0
8 288 0.5
8 289 1.0
8 290 1.0
8 291 1.0
8 292 0.5
8 293 1.0
8 294 1.0
8 295 0.5
9 296 0.5
9 297 1.0
9 298 1.0
9 299 1.0
9 300 1.0
9 301 1.0
9 302 0.5
9 303 1.0
9 304 1.0
9 305 1.0
9 306 0.5
9 307 1.0
9 308 1.0
9 309 0.5
10 310 0.5
10 311 1.0
10 312 1.0
10 313 1.0
10 314 1.0
10 315 1.0
10 316 0.5
10 317 1.0
10 318 1.0
10 319 1.0
10 320 0.5
10 321 1.0
10 322 1.0
10 323 0.5
11 324 0.5
11 325 1.0
11 326 1.0
11 327 1.0
11 328 1.0
11 329 1.0
11 330 0.5
11 331 1.0
11 332 1.0
11 333 1.0
11 334 0.5
11 335 1.0
11 336 1.0
11 337 0.5
12 338 0.5
12 339 1.0
12 340 1.0
12 341 1.0
12 342 1.0
12 343 1.0
12 344 0.5
12 345 1.0
12 346 1.0
12 347 1.0
12 348 0.5
12 349 1.0
12 350 1.0
12 351 0.5
13 184 1.0
13 198 1.0
13 212 1.0
13 226 1.0
13 240 1.0
13 254 1.0
13 268 1.0
13 282 1.0
13 296 1.0
13 310 1.0
13 324 1.0
13 338 1.0
14 185 1.0
14 199 1.0
14 213 1.0
14 227 1.0
14 241 1.0
14 255 1.0
14 269 1.0
14 283 1.0
14 297 1.0
14 311 1.0
14 325 1.0
14 339 1.0
15 186 1.0
15 200 1.0
15 214 1.0
15 228 1.0
15 242 1.0
15 256 1.0
15 270 1.0
15 284 1.0
15 298 1.0
15 312 1.0
15 326 1.0
15 340 1.0
16 187 1.0
16 201 1.0
16 215 1.0
16 229 1.0
16 243 1.0
16 257 1.0
16 271 1.0
16 285 1.0
16 299 1.0
16 313 1.0
16 327 1.0
16 341 1.0
17 188 1.0
17 202 1.0
17 216 1.0
17 230 1.0
17 244 1.0
17 258 1.0
17 272 1.0
17 286 1.0
17 300 1.0
17 314 1.0
17 328 1.0
17 342 1.0
18 189 1.0
18 203 1.0
18 217 1.0
18 231 1.0
18 245 1.0
18 259 1.0
18 273 1.0
18 287 1.0
18 301 1.0
18 315 1.0
18 329 1.0
18 343 1.0
19 190 1.0
19 204 1.0
19 218 1.0
19 232 1.0
19 246 1.0
19 260 1.0
19 274 1.0
19 288 1.0
19 302 1.0
19 316 1.0
19 330 1.0
19 344 1.0
20 191 1.0
20 205 1.0
20 219 1.0
20 233 1.0
20 247 1.0
20 261 1.0
20 275 1.0
20 289 1.0
20 303 1.0
20 317 1.0
20 331 1.0
20 345 1.0
21 192 1.0
21 206 1.0
21 220 1.0
21 234 1.0
21 248 1.0
21 262 1.0
21 276 1.0
21 290 1.0
21 304 1.0
21 318 1.0
21 332 1.0
21 346 1.0
22 193 1.0
22 207 1.0
22 221 1.0
22 235 1.0
22 249 1.0
22 263 1.0
22 277 1.0
22 291 1.0
22 305 1.0
22 319 1.0
22 333 1.0
22 347 1.0
23 194 1.0
23 208 1.0
23 222 1.0
23 236 1.0
23 250 1.0
23 264 1.0
23 278 1.0
23 292 1.0
23 306 1.0
23 320 1.0
23 334 1.0
23 348 1.0
24 195 1.0
24 209 1.0
24 223 1.0
24 237 1.0
24 251 1.0
24 265 1.0
24 279 1.0
24 293 1.0
24 307 1.0
24 321 1.0
24 335 1.0
24 349 1.0
25 196 1.0
25 210 1.0
25 224 1.0
25 238 1.0
25 252 1.0
25 266 1.0
25 280 1.0
25 294 1.0
25 308 1.0
25 322 1.0
25 336 1.0
25 350 1.0
26 197 1.0
26 211 1.0
26 225 1.0
26 239 1.0
26 253 1.0
26 267 1.0
26 281 1.0
26 295 1.0
26 309 1.0
26 323 1.0
26 337 1.0
26 351 1.0
27 184 1.0
27 190 -1.0
28 198 1.0
28 204 -1.0
29 212 1.0
29 218 -1.0
30 226 1.0
30 232 -1.0
31 240 1.0
31 246 -1.0
32 254 1.0
32 260 -1.0
33 268 1.0
33 274 -1.0
34 282 1.0
34 288 -1.0
35 296 1.0
35 302 -1.0
36 310 1.0
36 316 -1.0
37 324 1.0
37 330 -1.0
38 338 1.0
38 344 -1.0
39 194 1.0
39 197 -1.0
40 208 1.0
40 211 -1.0
41 222 1.0
41 225 -1.0
42 236 1.0
42 239 -1.0
43 250 1.0
43 253 -1.0
44 264 1.0
44 267 -1.0
45 278 1.0
45 281 -1.0
46 292 1.0
46 295 -1.0
47 306 1.0
47 309 -1.0
48 320 1.0
48 323 -1.0
49 334 1.0
49 337 -1.0
50 348 1.0
50 351 -1.0
51 91 1.0
51 184 -1.25
51 198 -1.25
51 212 -1.25
52 92 1.0
52 185 -1.25
52 199 -1.25
52 213 -1.25
53 93 1.0
53 186 -1.25
53 200 -1.25
53 214 -1.25
54 94 1.0
54 187 -1.25
54 201 -1.25
54 215 -1.25
55 95 1.0
55 188 -1.25
55 202 -1.25
55 216 -1.25
56 96 1.0
56 189 -1.25
56 203 -1.25
56 217 -1.25
57 97 1.0
57 190 -1.25
57 204 -1.25
57 218 -1.25
58 98 1.0
58 191 -1.25
58 205 -1.25
58 219 -1.25
59 99 1.0
59 192 -1.25
59 206 -1.25
59 220 -1.25
60 100 1.0
60 193 -1.25
60 207 -1.25
60 221 -1.25
61 101 1.0
61 194 -1.25
61 208 -1.25
61 222 -1.25
62 102 1.0
62 195 -1.25
62 209 -1.25
62 223 -1.25
63 103 1.0
63 196 -1.25
63 210 -1.25
63 224 -1.25
64 104 1.0
64 197 -1.25
64 211 -1.25
64 225 -1.25
65 91 -1.0
65 105 1.0
66 105 -1.0
66 106 1.0
67 106 -1.0
67 107 1.0
68 107 -1.0
68 108 1.0
69 108 -1.0
69 109 1.0
70 92 -1.0
70 110 1.0
71 110 -1.0
71 111 1.0
72 111 -1.0
72 112 1.0
73 112 -1.0
73 113 1.0
74 113 -1.0
74 114 1.0
75 93 -1.0
75 115 1.0
76 115 -1.0
76 116 1.0
77 116 -1.0
77 117 1.0
78 117 -1.0
78 118 1.0
79 118 -1.0
79 119 1.0
80 94 -1.0
80 120 1.0
81 120 -1.0
81 121 1.0
82 121 -1.0
82 122 1.0
83 122 -1.0
83 123 1.0
84 123 -1.0
84 124 1.0
85 95 -1.0
85 125 1.0
86 125 -1.0
86 126 1.0
87 126 -1.0
87 127 1.0
88 127 -1.0
88 128 1.0
89 128 -1.0
89 129 1.0
90 96 -1.0
90 130 1.0
91 130 -1.0
91 131 1.0
92 131 -1.0
92 132 1.0
93 132 -1.0
93 133 1.0
94 133 -1.0
94 134 1.0
95 97 -1.0
95 135 1.0
96 135 -1.0
96 136 1.0
97 136 -1.0
97 137 1.0
98 137 -1.0
98 138 1.0
99 138 -1.0
99 139 1.0
100 98 -1.0
100 140 1.0
101 140 -1.0
101 141 1.0
102 141 -1.0
102 142 1.0
103 142 -1.0
103 143 1.0
104 143 -1.0
104 144 1.0
105 99 -1.0
105 145 1.0
106 145 -1.0
106 146 1.0
107 146 -1.0
107 147 1.0
108 147 -1.0
108 148 1.0
109 148 -1.0
109 149 1.0
110 100 -1.0
110 150 1.0
111 150 -1.0
111 151 1.0
112 151 -1.0
112 152 1.0
113 152 -1.0
113 153 1.0
114 153 -1.0
114 154 1.0
115 101 -1.0
115 155 1.0
116 155 -1.0
116 156 1.0
117 156 -1.0
117 157 1.0
118 157 -1.0
118 158 1.0
119 158 -1.0
119 159 1.0
120 102 -1.0
120 160 1.0
121 160 -1.0
121 161 1.0
122 161 -1.0
122 162 1.0
123 162 -1.0
123 163 1.0
124 163 -1.0
124 164 1.0
125 103 -1.0
125 165 1.0
126 165 -1.0
126 166 1.0
127 166 -1.0
127 167 1.0
128 167 -1.0
128 168 1.0
129 168 -1.0
129 169 1.0
130 104 -1.0
130 170 1.0
131 170 -1.0
131 171 1.0
132 171 -1.0
132 172 1.0
133 172 -1.0
133 173 1.0
134 173 -1.0
134 174 1.0
135 175 1.0
136 176 1.0
137 177 1.0
138 178 1.0
139 179 1.0
140 180 1.0
141 181 1.0
142 182 1.0
143 183 1.0
1.79769313486232E+308 # value for infinity
0.0 # default left-hand-side value
116 # number of non-default left-hand-sides
1 1.0
2 1.0
3 1.0
4 1.0
5 1.0
6 1.0
7 1.0
8 1.0
9 1.0
10 1.0
11 1.0
12 1.0
13 1.0
14 1.0
15 1.0
16 1.0
17 1.0
18 1.0
19 1.0
20 1.0
21 1.0
22 1.0
23 1.0
24 1.0
25 1.0
26 1.0
144 1.0
145 1.0
146 1.0
147 1.0
148 1.0
149 1.0
150 -1.79769313486232E+308
151 -1.79769313486232E+308
152 -1.79769313486232E+308
153 -1.79769313486232E+308
154 -1.79769313486232E+308
155 -1.79769313486232E+308
156 -1.79769313486232E+308
157 -1.79769313486232E+308
158 -1.79769313486232E+308
159 -1.79769313486232E+308
160 -1.79769313486232E+308
161 -1.79769313486232E+308
162 -1.79769313486232E+308
163 -1.79769313486232E+308
164 -1.79769313486232E+308
165 -1.79769313486232E+308
166 -1.79769313486232E+308
167 -1.79769313486232E+308
168 -1.79769313486232E+308
169 -1.79769313486232E+308
170 -1.79769313486232E+308
171 -1.79769313486232E+308
172 -1.79769313486232E+308
173 -1.79769313486232E+308
174 -1.79769313486232E+308
175 -1.79769313486232E+308
176 -1.79769313486232E+308
177 -1.79769313486232E+308
178 -1.79769313486232E+308
179 -1.79769313486232E+308
180 -1.79769313486232E+308
181 -1.79769313486232E+308
182 -1.79769313486232E+308
183 -1.79769313486232E+308
184 -1.79769313486232E+308
185 -1.79769313486232E+308
186 -1.79769313486232E+308
187 -1.79769313486232E+308
188 -1.79769313486232E+308
189 -1.79769313486232E+308
190 -1.79769313486232E+308
191 -1.79769313486232E+308
192 -1.79769313486232E+308
193 -1.79769313486232E+308
194 -1.79769313486232E+308
195 -1.79769313486232E+308
196 -1.79769313486232E+308
197 -1.79769313486232E+308
198 -1.79769313486232E+308
199 -1.79769313486232E+308
200 -1.79769313486232E+308
201 -1.79769313486232E+308
202 -1.79769313486232E+308
203 -1.79769313486232E+308
204 -1.79769313486232E+308
205 -1.79769313486232E+308
206 -1.79769313486232E+308
207 -1.79769313486232E+308
208 -1.79769313486232E+308
209 -1.79769313486232E+308
210 -1.79769313486232E+308
211 -1.79769313486232E+308
212 -1.79769313486232E+308
213 -1.79769313486232E+308
214 -1.79769313486232E+308
215 -1.79769313486232E+308
216 -1.79769313486232E+308
217 -1.79769313486232E+308
218 -1.79769313486232E+308
219 -1.79769313486232E+308
220 -1.79769313486232E+308
221 -1.79769313486232E+308
222 -1.79769313486232E+308
223 -1.79769313486232E+308
224 -1.79769313486232E+308
225 -1.79769313486232E+308
226 -1.79769313486232E+308
227 -1.79769313486232E+308
228 -1.79769313486232E+308
229 -1.79769313486232E+308
230 -1.79769313486232E+308
231 -1.79769313486232E+308
232 -1.79769313486232E+308
233 -1.79769313486232E+308
0.0 # default right-hand-side value
116 # number of non-default right-hand-sides
1 1.0
2 1.0
3 1.0
4 1.0
5 1.0
6 1.0
7 1.0
8 1.0
9 1.0
10 1.0
11 1.0
12 1.0
13 1.0
14 1.0
15 1.0
16 1.0
17 1.0
18 1.0
19 1.0
20 1.0
21 1.0
22 1.0
23 1.0
24 1.0
25 1.0
26 1.0
144 1.0
145 1.0
146 1.0
147 1.0
148 1.0
149 1.0
150 0.15
151 0.15
152 0.15
153 0.15
154 0.15
155 0.15
156 0.15
157 0.15
158 0.15
159 0.15
160 0.15
161 0.15
162 0.15
163 0.15
164 0.15
165 0.15
166 0.15
167 0.15
168 0.15
169 0.15
170 0.15
171 0.15
172 0.15
173 0.15
174 0.15
175 0.15
176 0.15
177 0.15
178 0.15
179 0.15
180 0.15
181 0.15
182 0.15
183 0.15
184 0.15
185 0.15
186 0.15
187 0.15
188 0.15
189 0.15
190 0.15
191 0.15
192 0.15
193 0.15
194 0.15
195 0.15
196 0.15
197 0.15
198 0.15
199 0.15
200 0.15
201 0.15
202 0.15
203 0.15
204 0.15
205 0.15
206 0.15
207 0.15
208 0.15
209 0.15
210 0.15
211 0.15
212 0.15
213 0.15
214 0.15
215 0.15
216 0.15
217 0.15
218 0.15
219 0.15
220 0.15
221 0.15
222 0.15
223 0.15
224 0.15
225 0.15
226 0.15
227 0.15
228 0.15
229 0.15
230 0.15
231 0.15
232 0.15
233 0.15
0.0 # default variable lower bound value
9 # number of non-default variable lower bounds
175 -1.79769313486232E+308
176 -1.79769313486232E+308
177 -1.79769313486232E+308
178 -1.79769313486232E+308
179 -1.79769313486232E+308
180 -1.79769313486232E+308
181 -1.79769313486232E+308
182 -1.79769313486232E+308
183 -1.79769313486232E+308
1.79769313486232E+308 # default variable upper bound value
168 # number of non-default variable upper bounds
184 1.0
185 1.0
186 1.0
187 1.0
188 1.0
189 1.0
190 1.0
191 1.0
192 1.0
193 1.0
194 1.0
195 1.0
196 1.0
197 1.0
198 1.0
199 1.0
200 1.0
201 1.0
202 1.0
203 1.0
204 1.0
205 1.0
206 1.0
207 1.0
208 1.0
209 1.0
210 1.0
211 1.0
212 1.0
213 1.0
214 1.0
215 1.0
216 1.0
217 1.0
218 1.0
219 1.0
220 1.0
221 1.0
222 1.0
223 1.0
224 1.0
225 1.0
226 1.0
227 1.0
228 1.0
229 1.0
230 1.0
231 1.0
232 1.0
233 1.0
234 1.0
235 1.0
236 1.0
237 1.0
238 1.0
239 1.0
240 1.0
241 1.0
242 1.0
243 1.0
244 1.0
245 1.0
246 1.0
247 1.0
248 1.0
249 1.0
250 1.0
251 1.0
252 1.0
253 1.0
254 1.0
255 1.0
256 1.0
257 1.0
258 1.0
259 1.0
260 1.0
261 1.0
262 1.0
263 1.0
264 1.0
265 1.0
266 1.0
267 1.0
268 1.0
269 1.0
270 1.0
271 1.0
272 1.0
273 1.0
274 1.0
275 1.0
276 1.0
277 1.0
278 1.0
279 1.0
280 1.0
281 1.0
282 1.0
283 1.0
284 1.0
285 1.0
286 1.0
287 1.0
288 1.0
289 1.0
290 1.0
291 1.0
292 1.0
293 1.0
294 1.0
295 1.0
296 1.0
297 1.0
298 1.0
299 1.0
300 1.0
301 1.0
302 1.0
303 1.0
304 1.0
305 1.0
306 1.0
307 1.0
308 1.0
309 1.0
310 1.0
311 1.0
312 1.0
313 1.0
314 1.0
315 1.0
316 1.0
317 1.0
318 1.0
319 1.0
320 1.0
321 1.0
322 1.0
323 1.0
324 1.0
325 1.0
326 1.0
327 1.0
328 1.0
329 1.0
330 1.0
331 1.0
332 1.0
333 1.0
334 1.0
335 1.0
336 1.0
337 1.0
338 1.0
339 1.0
340 1.0
341 1.0
342 1.0
343 1.0
344 1.0
345 1.0
346 1.0
347 1.0
348 1.0
349 1.0
350 1.0
351 1.0
0 # default variable type
168 # number of non-default variable types
184 1
185 1
186 1
187 1
188 1
189 1
190 1
191 1
192 1
193 1
194 1
195 1
196 1
197 1
198 1
199 1
200 1
201 1
202 1
203 1
204 1
205 1
206 1
207 1
208 1
209 1
210 1
211 1
212 1
213 1
214 1
215 1
216 1
217 1
218 1
219 1
220 1
221 1
222 1
223 1
224 1
225 1
226 1
227 1
228 1
229 1
230 1
231 1
232 1
233 1
234 1
235 1
236 1
237 1
238 1
239 1
240 1
241 1
242 1
243 1
244 1
245 1
246 1
247 1
248 1
249 1
250 1
251 1
252 1
253 1
254 1
255 1
256 1
257 1
258 1
259 1
260 1
261 1
262 1
263 1
264 1
265 1
266 1
267 1
268 1
269 1
270 1
271 1
272 1
273 1
274 1
275 1
276 1
277 1
278 1
279 1
280 1
281 1
282 1
283 1
284 1
285 1
286 1
287 1
288 1
289 1
290 1
291 1
292 1
293 1
294 1
295 1
296 1
297 1
298 1
299 1
300 1
301 1
302 1
303 1
304 1
305 1
306 1
307 1
308 1
309 1
310 1
311 1
312 1
313 1
314 1
315 1
316 1
317 1
318 1
319 1
320 1
321 1
322 1
323 1
324 1
325 1
326 1
327 1
328 1
329 1
330 1
331 1
332 1
333 1
334 1
335 1
336 1
337 1
338 1
339 1
340 1
341 1
342 1
343 1
344 1
345 1
346 1
347 1
348 1
349 1
350 1
351 1
0.0 # default variable primal value in starting point
0 # number of non-default variable primal values in starting point
0.0 # default constraint dual value in starting point
0 # number of non-default constraint dual values in starting point
0.0 # default variable bound dual value in starting point
0 # number of non-default variable bound dual values in starting point
0 # number of non-default variable names
0 # number of non-default constraint names
